NAME: random-11-19888
TYPE: TSP
COMMENT: size=11 seed=19888
DIMENSION: 24
EDGE_WEIGHT_TYPE: EUC_2D
NODE_COORD_SECTION
+0 616 560
-0 616 560
+1 875 498
-1 127 517
+2 301 509
-2 51 10
+3 574 807
-3 695 166
+4 867 361
-4 545 593
+5 670 346
-5 281 328
+6 564 591
-6 196 629
+7 977 65
-7 848 262
+8 963 975
-8 847 135
+9 445 491
-9 429 593
+10 985 356
-10 300 14
+11 501 645
-11 497 843
PRECEDENCE_SECTION
+0 -0
+1 -1
+2 -2
+3 -3
+4 -4
+5 -5
+6 -6
+7 -7
+8 -8
+9 -9
+10 -10
+11 -11
EOF
